(declare-fun temp534_2 () (_ BitVec 64))
(declare-fun temp534_1 () (_ BitVec 64))
(declare-fun temp534_3 () (_ BitVec 64))
(declare-fun var3540790 () (_ BitVec 64))
(declare-fun var3739868 () (_ BitVec 64))
(declare-fun temp534_4 () (_ BitVec 64))
(declare-fun var3871063 () (_ BitVec 64))
(declare-fun temp534_5 () (_ BitVec 64))
(declare-fun var3871064 () (_ BitVec 64))
(declare-fun temp534_7 () (_ BitVec 64))
(declare-fun temp534_6 () (_ BitVec 64))
(declare-fun temp534_8 () (_ BitVec 64))
(declare-fun var4458536 () (_ BitVec 64))
(declare-fun var4458578 () (_ BitVec 64))
(declare-fun var4458523 () (_ BitVec 64))
(declare-fun var4458522 () (_ BitVec 64))
(declare-fun temp534_9 () (_ BitVec 64))
(declare-fun var4458527 () (_ BitVec 64))
(declare-fun temp534_10 () (_ BitVec 64))
(declare-fun var4458529 () (_ BitVec 64))
(declare-fun temp534_11 () (_ BitVec 64))
(declare-fun temp534_12 () (_ BitVec 64))
(declare-fun var5245134 () (_ BitVec 64))
(declare-fun temp534_13 () (_ BitVec 64))
(declare-fun temp534_14 () (_ BitVec 64))
(declare-fun var5245164 () (_ BitVec 64))
(declare-fun var5245211 () (_ BitVec 64))
(declare-fun var5245132 () (_ BitVec 64))
(declare-fun var532113 () (_ BitVec 64))
(declare-fun var532115 () (_ BitVec 64))
(declare-fun var5840607 () (_ BitVec 64))
(declare-fun temp534_16 () (_ BitVec 64))
(declare-fun temp534_15 () (_ BitVec 64))
(assert (= temp534_2 #x0000000000000000))
(assert (= temp534_1 temp534_2))
(assert (= temp534_3 #x0000000000000000))
(assert (= var3540790 temp534_3))
(assert (= var3739868 var3540790))
(assert (= temp534_4 #x0000000000000000))
(assert (= var3871063 temp534_4))
(assert (= temp534_5 #x0000000000000000))
(assert (= var3871064 temp534_5))
(assert (= temp534_7 #x0000000000000000))
(assert (= temp534_6 temp534_7))
(assert (= temp534_8 #x0000000000000000))
(assert (= var4458536 temp534_8))
(assert (= var4458578 var4458536))
(assert (= var4458523 var4458578))
(assert (= var4458522 var4458523))
(assert (= temp534_9 #x0000000000000001))
(assert (= var4458527 (bvand var4458522 temp534_9)))
(assert (= temp534_10 #x0000000000000000))
(assert (= var4458529
   (ite (= var4458527 temp534_10) #x0000000000000001 #x0000000000000000)))
(assert (= temp534_11 #x0000000000000001))
(assert (= var4458529 temp534_11))
(assert (= temp534_12 #x0000000000000001))
(assert (= var5245134 temp534_12))
(assert (= temp534_13 #x0000000000000000))
(assert (= temp534_14 #x0000000000000002))
(assert (= var5245164 (ite (= var5245134 #x0000000000000001) temp534_13 temp534_14)))
(assert (= var5245211 var5245164))
(assert (= var5245132 var5245211))
(assert (= var532113 var5245132))
(assert (= var532115 var532113))
(assert (= var5840607 var532115))
(assert (= temp534_16 #x0000000000000005))
(assert (= temp534_15 temp534_16))
(model-add temp534_2 () (_ BitVec 64) #x0000000000000000)
(model-add temp534_1 () (_ BitVec 64) #x0000000000000000)
(model-add temp534_3 () (_ BitVec 64) #x0000000000000000)
(model-add var3540790 () (_ BitVec 64) #x0000000000000000)
(model-add var3739868 () (_ BitVec 64) #x0000000000000000)
(model-add temp534_4 () (_ BitVec 64) #x0000000000000000)
(model-add var3871063 () (_ BitVec 64) #x0000000000000000)
(model-add temp534_5 () (_ BitVec 64) #x0000000000000000)
(model-add var3871064 () (_ BitVec 64) #x0000000000000000)
(model-add temp534_7 () (_ BitVec 64) #x0000000000000000)
(model-add temp534_6 () (_ BitVec 64) #x0000000000000000)
(model-add temp534_8 () (_ BitVec 64) #x0000000000000000)
(model-add var4458536 () (_ BitVec 64) #x0000000000000000)
(model-add var4458578 () (_ BitVec 64) #x0000000000000000)
(model-add var4458523 () (_ BitVec 64) #x0000000000000000)
(model-add var4458522 () (_ BitVec 64) #x0000000000000000)
(model-add temp534_9 () (_ BitVec 64) #x0000000000000001)
(model-add var4458527 () (_ BitVec 64) #x0000000000000000)
(model-add temp534_10 () (_ BitVec 64) #x0000000000000000)
(model-add var4458529 () (_ BitVec 64) #x0000000000000001)
(model-add temp534_11 () (_ BitVec 64) #x0000000000000001)





